305
508
712
919
1125
1333
1537
1743
1946
2152
2358
2562
2766
2972
3176
3381
3588
3796
4004
4208
4414
4618
4826
5032
5239
5452
5655
5860
6067
6274
6479
6681
6886
7089
7292
7499
7702
7907
8112
8316
8523
8730
8940
9150
9356
9563
9771
9973
10179
10385
10591
10797
11000
11207
11414
11621
11823
12028
12232
12436
12640
12845
13047
13253
13458
13669
13875
14080
14286
14488
14694
14900
15103
15309
15515
15718
15919
16125
16334
16538
16743
16948
17152
17360
17565
17774
17985
18191
18397
18601
18806
19011
19217
19420
19625
19828
20034
20240
20443
20647
20851
21054
21259
21465
21670
21873
22079
22288
22493
22696
22900
23104
23310
23516
23721
23923
24125
24331
24539
24747
24952
25158
25365
25568
25773
25981
26189
26396
26602
26810
27016
27220
27425
27629
27832
28036
28243
28449
28655
28860
29068
29273
29476
29680
29888
30092
30294
30499
30705
30914
31121